NAME : lin105.tsp
TYPE : TOUR
DIMENSION : 105
TOUR_LENGTH : 16225.258440916576
TOUR_SECTION
1
2
6
7
10
11
15
103
21
22
29
30
31
32
33
104
40
49
45
48
50
55
56
59
64
72
77
79
67
68
71
78
82
83
85
84
86
91
92
96
97
101
102
93
98
99
100
95
94
87
88
90
89
80
76
73
81
75
74
69
70
62
63
66
65
61
60
39
38
34
35
37
42
43
46
52
53
58
105
57
54
51
47
44
41
36
27
28
23
20
12
19
24
26
25
18
16
17
14
13
4
5
9
8
3
-1
